Test: battleship-09-17-sat.cnf
Options: -no-inverting-opt -sym-var-bump
WARNING: for repeatability, setting FPU to use double precision
============================[ Problem Statistics ]=============================
|                                                                             |
|  Number of symmetries:           15                                         |
|  Number of invertingSyms:         0                                         |
|  Number of variables:           153                                         |
|  Number of clauses:             693                                         |
|  Parse time:                   0.00 s                                       |
|                                                                             |
============================[ Search Statistics ]==============================
| Conflicts |          ORIGINAL         |          LEARNT          | Progress |
|           |    Vars  Clauses Literals |    Limit  Clauses Lit/Cl |          |
===============================================================================
|       100 |     153      693     2601 |      254      144     84 |  0.004 % |
|       250 |     153      693     2601 |      279      197     58 |  0.004 % |
===============================================================================
restarts              : 4
conflicts             : 419            (104750 /sec)
symconflicts          : 31             (7750 /sec)
decisions             : 942            (0.00 % random) (235500 /sec)
propagations          : 6635           (1658750 /sec)
sympropagations       : 135            (33750 /sec)
conflict literals     : 26761          (0.92 % deleted)
literals     : 26761          (0.92 % deleted)

HEURISTIC USAGES
random                : 0           
activity w/ lookahead : 0           
activity no lookahead : 0           
original sp           : 941         
sym count             : 0           

Memory used           : 5.00 MB
CPU time              : 0.004 s

SATISFIABLE
